p cnf 12 50 
-8 -11 1 0
-8 7 4 0
-9 -11 -4 0
-5 7 12 0
-11 3 -2 0
6 3 9 0
9 -7 12 0
10 1 2 0
-4 -3 -10 0
-2 -5 12 0
-1 -7 3 0
2 -9 5 0
4 -1 6 0
6 -10 -11 0
-7 12 10 0
-2 9 1 0
5 6 4 0
-11 9 8 0
-8 2 7 0
7 -12 9 0
9 -3 -10 0
-5 -3 6 0
9 2 -4 0
9 5 -10 0
5 -1 6 0
6 -2 3 0
10 -8 -1 0
8 -12 1 0
3 6 9 0
-1 7 -5 0
-4 -10 5 0
-1 -2 -7 0
-2 -5 6 0
12 3 -5 0
11 -2 -4 0
7 -4 -3 0
-5 11 4 0
10 -6 -4 0
4 -11 7 0
-10 -6 3 0
-3 9 6 0
-5 -9 -4 0
-7 -3 -6 0
4 -7 5 0
-6 4 3 0
10 6 12 0
-5 -12 2 0
3 -4 -2 0
-11 -4 2 0
7 -10 2 0
